c is-sat
p cnf 8 54
6 -3 -1 0
7 -1 -4 0
7 3 4 0
-3 -7 -8 0
-1 3 -2 0
-2 -3 -6 0
-5 -8 -3 0
-1 2 7 0
-5 -2 -8 0
-7 -5 4 0
4 -8 7 0
2 3 -7 0
-7 -2 -8 0
-7 -3 -6 0
-2 -3 -6 0
-1 6 -4 0
-1 -3 8 0
-3 -7 -8 0
-6 4 1 0
-3 -2 -8 0
-7 2 1 0
-2 -5 6 0
4 3 -6 0
6 2 -1 0
-8 -4 -2 0
-7 8 -3 0
-4 -2 -5 0
-4 -5 -1 0
-7 -6 1 0
8 -5 -2 0
-3 -6 -4 0
-6 -7 5 0
2 1 -3 0
1 -4 -6 0
7 -1 2 0
-8 -4 7 0
-4 -3 -1 0
-3 8 -2 0
5 -6 1 0
-3 -5 -4 0
-1 3 8 0
-5 2 -4 0
-5 -1 4 0
-6 -1 -4 0
8 -1 6 0
3 7 -8 0
-1 7 -5 0
-8 -3 -1 0
-8 -7 -1 0
8 -7 6 0
-7 -3 -6 0
2 -4 -7 0
6 -5 -4 0
-4 -6 -2 0
